
Gurobi 13.0.0 (linux64) logging started Thu Jan 15 04:38:41 2026

Set parameter LogFile to value "../experiments/network-n_50_s_0_rp_0-app_set-id_44_19_apps/submip_40_epr1_model_gurobi.log"
Set parameter TimeLimit to value 8.2733696057100315e+02
Gurobi Optimizer version 13.0.0 build v13.0.0rc1 (linux64 - "Ubuntu 24.04.3 LTS")

CPU model: Intel(R) Core(TM) Ultra 7 165H, instruction set [SSE2|AVX|AVX2]
Thread count: 22 physical cores, 22 logical processors, using up to 22 threads

Non-default parameters:
TimeLimit  8.2733696057100315e+02
LogToConsole  0

Academic license 2539022 - for non-commercial use only - registered to al___@studenti.unimi.it
Optimize a model with 29624 rows, 6200 columns and 67615 nonzeros (Min)
Model fingerprint: 0xe1e0d3a8
Model has 6200 linear objective coefficients
Model has 166 quadratic constraints
Variable types: 0 continuous, 6200 integer (6200 binary)
Coefficient statistics:
  Matrix range     [1e+00, 9e+02]
  QMatrix range    [5e+01, 2e+02]
  Objective range  [1e+01, 2e+02]
  Bounds range     [1e+00, 1e+00]
  RHS range        [1e+00, 1e+09]
  QRHS range       [1e+02, 6e+02]
Presolve removed 29209 rows and 5261 columns
Presolve time: 0.05s
Presolved: 5004 rows, 5380 columns, 31004 nonzeros
Variable types: 0 continuous, 5380 integer (5380 binary)

Root relaxation: objective 5.010032e+03, 1048 iterations, 0.04 seconds (0.07 work units)

    Nodes    |    Current Node    |     Objective Bounds      |     Work
 Expl Unexpl |  Obj  Depth IntInf | Incumbent    BestBd   Gap | It/Node Time

     0     0 5010.03184    0  140          - 5010.03184      -     -    0s
     0     0 5388.38882    0  150          - 5388.38882      -     -    0s
     0     0 5436.04734    0  176          - 5436.04734      -     -    0s
     0     0 5436.94288    0  177          - 5436.94288      -     -    0s

Cutting planes:
  Gomory: 14
  Lift-and-project: 18
  Cover: 52
  Clique: 23
  MIR: 54
  Knapsack: 17
  StrongCG: 32
  GUB cover: 10
  Zero half: 29
  RLT: 110
  Relax-and-lift: 9
  BQP: 41

Explored 1 nodes (2294 simplex iterations) in 0.91 seconds (0.81 work units)
Thread count was 22 (of 22 available processors)

Solution count 0

Model is infeasible
Best objective -, best bound -, gap -

User-callback calls 797, time in user-callback 0.00 sec
